NAME : X-n895-k37
COMMENT : "Generated by Uchoa, Pecin, Pessoa, Poggi, Subramanian, and Vidal (2013)"
TYPE : CVRP
DIMENSION : 895
EDGE_WEIGHT_TYPE : EUC_2D
CAPACITY : 1816
NODE_COORD_SECTION
1 706 137
2 392 662
3 692 274
4 944 370
5 726 945
6 869 43
7 621 770
8 112 402
9 523 374
10 619 178
11 553 457
12 95 814
13 696 130
14 27 417
15 940 487
16 943 965
17 670 435
18 931 752
19 307 776
20 404 101
21 199 526
22 117 312
23 762 505
24 433 864
25 868 155
26 832 870
27 488 624
28 686 782
29 585 89
30 268 339
31 248 344
32 22 776
33 89 614
34 75 271
35 882 646
36 6 656
37 449 27
38 857 362
39 809 774
40 403 626
41 559 145
42 667 945
43 524 737
44 683 777
45 641 798
46 514 495
47 102 813
48 517 591
49 748 330
50 859 127
51 699 41
52 281 442
53 257 106
54 116 99
55 41 732
56 555 95
57 378 1
58 155 308
59 942 955
60 619 205
61 646 910
62 796 791
63 785 49
64 958 817
65 424 240
66 311 226
67 37 119
68 761 866
69 404 417
70 929 432
71 743 535
72 418 679
73 107 379
74 329 868
75 22 432
76 24 474
77 380 83
78 145 135
79 576 209
80 877 859
81 901 0
82 464 473
83 181 35
84 976 331
85 672 617
86 324 264
87 193 341
88 525 782
89 527 935
90 218 529
91 48 325
92 431 989
93 626 974
94 594 432
95 757 450
96 805 123
97 959 266
98 348 776
99 409 946
100 458 247
101 841 361
102 333 503
103 675 306
104 407 811
105 418 325
106 856 199
107 300 792
108 371 156
109 163 237
110 172 589
111 609 928
112 273 18
113 379 694
114 996 38
115 4 6
116 738 18
117 693 307
118 989 54
119 468 585
120 594 172
121 563 205
122 271 783
123 58 987
124 374 383
125 775 530
126 913 512
127 413 798
128 813 948
129 943 941
130 437 169
131 247 374
132 347 51
133 8 111
134 321 825
135 854 335
136 619 272
137 742 232
138 496 187
139 605 66
140 973 75
141 241 509
142 845 106
143 451 217
144 955 319
145 432 662
146 704 73
147 418 205
148 817 754
149 570 429
150 362 720
151 114 713
152 11 516
153 737 62
154 563 318
155 222 187
156 697 638
157 343 830
158 1 279
159 3 342
160 231 539
161 628 515
162 827 658
163 801 656
164 679 529
165 158 918
166 142 648
167 530 874
168 305 312
169 328 352
170 501 82
171 189 506
172 78 479
173 863 149
174 413 938
175 353 328
176 173 12
177 311 155
178 839 829
179 674 882
180 463 786
181 554 231
182 693 512
183 382 975
184 28 64
185 298 757
186 343 385
187 789 178
188 650 2
189 580 122
190 111 986
191 779 332
192 311 146
193 263 238
194 770 491
195 319 39
196 703 930
197 539 28
198 45 221
199 954 171
200 714 181
201 428 934
202 120 134
203 301 361
204 940 618
205 277 407
206 126 331
207 564 510
208 177 346
209 265 422
210 651 553
211 19 286
212 928 367
213 894 965
214 232 681
215 523 620
216 894 67
217 498 538
218 864 235
219 8 209
220 482 729
221 736 659
222 491 881
223 990 18
224 303 19
225 98 362
226 513 920
227 54 777
228 669 503
229 401 696
230 282 796
231 373 477
232 97 129
233 289 226
234 604 594
235 192 881
236 806 742
237 737 534
238 235 539
239 335 13
240 218 573
241 544 714
242 389 497
243 706 668
244 459 745
245 841 879
246 229 474
247 786 899
248 857 774
249 585 656
250 373 117
251 132 531
252 444 64
253 60 688
254 392 214
255 884 652
256 455 410
257 384 134
258 309 192
259 255 115
260 828 499
261 995 168
262 102 622
263 40 41
264 704 407
265 164 482
266 201 711
267 110 315
268 928 101
269 490 778
270 991 811
271 916 88
272 545 940
273 398 279
274 304 912
275 984 276
276 308 171
277 644 223
278 934 144
279 420 61
280 169 435
281 810 360
282 121 281
283 409 392
284 787 260
285 805 460
286 62 236
287 713 481
288 18 568
289 369 806
290 407 560
291 172 307
292 429 168
293 570 697
294 755 949
295 204 115
296 785 263
297 301 949
298 163 735
299 308 916
300 553 947
301 787 391
302 640 395
303 556 985
304 408 699
305 77 370
306 647 45
307 101 363
308 724 896
309 554 248
310 597 941
311 677 358
312 80 300
313 422 903
314 359 979
315 89 43
316 759 567
317 217 226
318 755 196
319 727 756
320 243 741
321 305 628
322 55 272
323 54 601
324 723 760
325 376 531
326 491 26
327 116 948
328 588 950
329 952 878
330 740 917
331 33 931
332 934 527
333 878 622
334 436 544
335 506 952
336 56 100
337 833 235
338 666 148
339 311 177
340 958 167
341 820 203
342 468 112
343 805 38
344 840 619
345 672 531
346 336 457
347 422 735
348 610 233
349 549 234
350 717 345
351 174 728
352 379 181
353 441 849
354 507 580
355 152 247
356 959 525
357 665 922
358 560 104
359 24 789
360 366 714
361 364 519
362 180 505
363 537 611
364 319 92
365 12 721
366 627 506
367 14 240
368 742 392
369 913 124
370 611 472
371 861 969
372 258 237
373 692 340
374 798 911
375 55 353
376 698 642
377 810 497
378 303 968
379 659 716
380 592 510
381 50 737
382 199 933
383 307 646
384 676 138
385 27 719
386 9 732
387 717 497
388 387 712
389 684 116
390 211 434
391 180 889
392 367 808
393 790 121
394 735 751
395 69 205
396 960 894
397 442 938
398 464 531
399 334 100
400 713 827
401 568 287
402 734 265
403 1 988
404 877 355
405 421 908
406 835 584
407 679 551
408 905 619
409 84 49
410 509 761
411 49 237
412 954 648
413 970 982
414 452 208
415 375 760
416 384 862
417 314 488
418 815 978
419 997 598
420 258 573
421 685 368
422 697 265
423 833 497
424 842 481
425 477 937
426 654 904
427 880 966
428 105 180
429 415 523
430 196 870
431 712 781
432 220 652
433 47 976
434 283 778
435 984 484
436 62 771
437 256 155
438 830 384
439 924 883
440 710 801
441 748 439
442 203 86
443 843 548
444 946 896
445 558 219
446 726 422
447 627 320
448 753 602
449 551 407
450 170 569
451 242 803
452 822 356
453 918 925
454 264 847
455 232 865
456 40 984
457 678 213
458 187 214
459 218 141
460 5 201
461 181 727
462 73 772
463 400 534
464 514 119
465 603 438
466 509 260
467 55 709
468 65 734
469 448 333
470 32 560
471 40 598
472 364 436
473 48 915
474 638 194
475 289 900
476 817 504
477 65 701
478 270 825
479 313 577
480 33 609
481 988 726
482 328 755
483 704 359
484 327 312
485 631 37
486 165 429
487 629 240
488 212 564
489 642 201
490 585 932
491 335 982
492 911 208
493 993 799
494 347 487
495 648 607
496 844 478
497 484 925
498 662 962
499 469 911
500 136 495
501 246 693
502 694 362
503 279 948
504 117 776
505 237 728
506 61 334
507 639 541
508 819 723
509 742 676
510 335 666
511 685 781
512 475 132
513 875 693
514 538 786
515 631 519
516 24 691
517 76 956
518 649 263
519 273 876
520 609 475
521 618 152
522 97 306
523 481 737
524 71 451
525 96 989
526 265 266
527 705 252
528 459 979
529 940 686
530 991 133
531 473 340
532 524 304
533 902 482
534 62 39
535 891 180
536 218 68
537 564 128
538 724 756
539 142 723
540 199 802
541 838 393
542 170 195
543 991 179
544 327 422
545 462 560
546 50 912
547 274 530
548 165 743
549 503 930
550 966 598
551 414 19
552 478 965
553 857 314
554 974 589
555 905 657
556 736 179
557 746 547
558 79 359
559 822 719
560 611 871
561 221 972
562 747 25
563 317 246
564 479 411
565 663 953
566 390 844
567 123 548
568 919 567
569 277 365
570 876 710
571 48 695
572 211 991
573 602 104
574 25 664
575 480 25
576 842 729
577 1000 577
578 113 381
579 884 645
580 998 717
581 161 208
582 366 683
583 302 922
584 71 282
585 608 939
586 463 27
587 857 993
588 155 642
589 188 723
590 39 15
591 248 256
592 549 404
593 577 32
594 180 887
595 253 881
596 251 66
597 780 353
598 925 23
599 229 298
600 467 518
601 629 690
602 767 447
603 609 706
604 101 540
605 285 58
606 151 320
607 405 567
608 266 302
609 737 994
610 979 446
611 709 111
612 773 865
613 301 43
614 98 770
615 186 834
616 638 680
617 122 275
618 818 874
619 587 993
620 581 90
621 675 767
622 394 485
623 233 115
624 523 829
625 258 116
626 540 968
627 530 493
628 91 519
629 504 936
630 919 829
631 456 683
632 114 174
633 869 350
634 648 215
635 72 7
636 122 700
637 137 505
638 799 415
639 14 55
640 852 391
641 925 58
642 896 356
643 1000 181
644 740 435
645 171 685
646 414 107
647 319 3
648 428 407
649 649 573
650 287 377
651 345 908
652 260 775
653 455 930
654 395 17
655 29 545
656 784 396
657 515 475
658 76 518
659 397 332
660 249 19
661 84 948
662 619 511
663 55 952
664 110 785
665 245 598
666 767 266
667 689 850
668 524 721
669 408 696
670 215 198
671 559 740
672 850 248
673 813 23
674 113 360
675 5 103
676 150 678
677 24 381
678 564 946
679 948 682
680 692 713
681 439 83
682 120 789
683 383 989
684 444 944
685 780 460
686 291 865
687 884 797
688 580 354
689 597 359
690 39 789
691 105 650
692 974 818
693 772 641
694 278 318
695 277 353
696 705 598
697 10 683
698 376 850
699 709 481
700 554 851
701 349 880
702 654 921
703 287 871
704 507 121
705 651 137
706 885 710
707 978 127
708 252 845
709 108 383
710 796 535
711 324 120
712 680 848
713 741 55
714 567 356
715 948 484
716 384 849
717 898 609
718 333 274
719 48 119
720 162 955
721 755 16
722 680 28
723 905 694
724 516 164
725 815 264
726 145 502
727 370 139
728 147 867
729 413 855
730 725 215
731 382 152
732 465 342
733 207 306
734 362 832
735 450 698
736 76 260
737 689 652
738 456 653
739 166 505
740 297 183
741 674 941
742 360 125
743 698 567
744 641 61
745 806 739
746 879 332
747 291 644
748 328 738
749 60 626
750 771 498
751 773 764
752 782 446
753 236 699
754 246 489
755 44 716
756 125 308
757 465 68
758 471 311
759 586 559
760 690 839
761 703 363
762 61 613
763 959 114
764 505 443
765 236 226
766 591 180
767 298 472
768 808 917
769 177 815
770 80 442
771 820 484
772 534 945
773 971 304
774 508 967
775 318 272
776 826 605
777 884 385
778 305 965
779 664 720
780 527 864
781 516 762
782 853 785
783 306 979
784 686 79
785 294 656
786 990 418
787 775 966
788 52 500
789 972 304
790 504 998
791 173 863
792 580 766
793 130 459
794 639 292
795 688 616
796 926 405
797 683 889
798 590 217
799 80 441
800 949 339
801 366 878
802 5 325
803 189 316
804 213 379
805 248 724
806 489 309
807 435 486
808 484 727
809 224 242
810 94 504
811 314 961
812 231 474
813 516 264
814 832 385
815 900 15
816 127 103
817 176 136
818 160 67
819 346 693
820 547 990
821 584 219
822 495 809
823 383 299
824 69 896
825 947 391
826 705 505
827 822 909
828 976 477
829 799 545
830 610 193
831 46 858
832 752 779
833 505 89
834 483 553
835 525 251
836 585 737
837 759 448
838 553 402
839 300 459
840 867 678
841 77 562
842 499 201
843 492 616
844 690 820
845 310 386
846 956 549
847 803 123
848 354 770
849 134 392
850 6 687
851 8 147
852 859 27
853 553 65
854 695 997
855 465 120
856 407 480
857 399 411
858 510 499
859 608 240
860 906 910
861 834 444
862 900 358
863 448 970
864 466 485
865 845 701
866 763 376
867 76 538
868 899 267
869 750 729
870 950 497
871 161 440
872 222 709
873 693 594
874 768 305
875 449 937
876 154 151
877 148 376
878 474 526
879 265 553
880 617 328
881 417 672
882 781 526
883 11 580
884 237 863
885 128 92
886 351 810
887 669 575
888 843 769
889 740 767
890 304 526
891 298 862
892 966 953
893 37 837
894 711 961
895 534 28
PICKUP_AND_DELIVERY_SECTION
1 0 0 1000000000 0 0 0
2 0 0 1000000000 0 0 67
3 0 0 1000000000 0 86 0
4 0 0 1000000000 0 0 82
5 0 0 1000000000 0 99 0
6 0 0 1000000000 0 0 54
7 0 0 1000000000 0 52 0
8 0 0 1000000000 0 0 54
9 0 0 1000000000 0 71 0
10 0 0 1000000000 0 0 70
11 0 0 1000000000 0 61 0
12 0 0 1000000000 0 0 74
13 0 0 1000000000 0 91 0
14 0 0 1000000000 0 0 97
15 0 0 1000000000 0 92 0
16 0 0 1000000000 0 0 63
17 0 0 1000000000 0 84 0
18 0 0 1000000000 0 0 90
19 0 0 1000000000 0 53 0
20 0 0 1000000000 0 0 66
21 0 0 1000000000 0 79 0
22 0 0 1000000000 0 0 57
23 0 0 1000000000 0 53 0
24 0 0 1000000000 0 0 72
25 0 0 1000000000 0 58 0
26 0 0 1000000000 0 0 94
27 0 0 1000000000 0 86 0
28 0 0 1000000000 0 0 64
29 0 0 1000000000 0 74 0
30 0 0 1000000000 0 0 82
31 0 0 1000000000 0 78 0
32 0 0 1000000000 0 0 77
33 0 0 1000000000 0 78 0
34 0 0 1000000000 0 0 58
35 0 0 1000000000 0 51 0
36 0 0 1000000000 0 0 64
37 0 0 1000000000 0 61 0
38 0 0 1000000000 0 0 87
39 0 0 1000000000 0 92 0
40 0 0 1000000000 0 0 80
41 0 0 1000000000 0 62 0
42 0 0 1000000000 0 0 97
43 0 0 1000000000 0 88 0
44 0 0 1000000000 0 0 78
45 0 0 1000000000 0 78 0
46 0 0 1000000000 0 0 86
47 0 0 1000000000 0 75 0
48 0 0 1000000000 0 0 62
49 0 0 1000000000 0 96 0
50 0 0 1000000000 0 0 82
51 0 0 1000000000 0 50 0
52 0 0 1000000000 0 0 61
53 0 0 1000000000 0 86 0
54 0 0 1000000000 0 0 67
55 0 0 1000000000 0 92 0
56 0 0 1000000000 0 0 57
57 0 0 1000000000 0 51 0
58 0 0 1000000000 0 0 70
59 0 0 1000000000 0 93 0
60 0 0 1000000000 0 0 83
61 0 0 1000000000 0 99 0
62 0 0 1000000000 0 0 64
63 0 0 1000000000 0 62 0
64 0 0 1000000000 0 0 78
65 0 0 1000000000 0 64 0
66 0 0 1000000000 0 0 81
67 0 0 1000000000 0 85 0
68 0 0 1000000000 0 0 56
69 0 0 1000000000 0 56 0
70 0 0 1000000000 0 0 87
71 0 0 1000000000 0 91 0
72 0 0 1000000000 0 0 92
73 0 0 1000000000 0 58 0
74 0 0 1000000000 0 0 68
75 0 0 1000000000 0 93 0
76 0 0 1000000000 0 0 58
77 0 0 1000000000 0 98 0
78 0 0 1000000000 0 0 87
79 0 0 1000000000 0 85 0
80 0 0 1000000000 0 0 94
81 0 0 1000000000 0 71 0
82 0 0 1000000000 0 0 93
83 0 0 1000000000 0 50 0
84 0 0 1000000000 0 0 60
85 0 0 1000000000 0 90 0
86 0 0 1000000000 0 0 95
87 0 0 1000000000 0 87 0
88 0 0 1000000000 0 0 85
89 0 0 1000000000 0 79 0
90 0 0 1000000000 0 0 54
91 0 0 1000000000 0 89 0
92 0 0 1000000000 0 0 98
93 0 0 1000000000 0 98 0
94 0 0 1000000000 0 0 85
95 0 0 1000000000 0 97 0
96 0 0 1000000000 0 0 94
97 0 0 1000000000 0 69 0
98 0 0 1000000000 0 0 62
99 0 0 1000000000 0 56 0
100 0 0 1000000000 0 0 98
101 0 0 1000000000 0 65 0
102 0 0 1000000000 0 0 55
103 0 0 1000000000 0 93 0
104 0 0 1000000000 0 0 52
105 0 0 1000000000 0 69 0
106 0 0 1000000000 0 0 60
107 0 0 1000000000 0 97 0
108 0 0 1000000000 0 0 55
109 0 0 1000000000 0 85 0
110 0 0 1000000000 0 0 52
111 0 0 1000000000 0 66 0
112 0 0 1000000000 0 0 72
113 0 0 1000000000 0 69 0
114 0 0 1000000000 0 0 50
115 0 0 1000000000 0 73 0
116 0 0 1000000000 0 0 54
117 0 0 1000000000 0 74 0
118 0 0 1000000000 0 0 93
119 0 0 1000000000 0 84 0
120 0 0 1000000000 0 0 69
121 0 0 1000000000 0 99 0
122 0 0 1000000000 0 0 74
123 0 0 1000000000 0 94 0
124 0 0 1000000000 0 0 98
125 0 0 1000000000 0 55 0
126 0 0 1000000000 0 0 95
127 0 0 1000000000 0 74 0
128 0 0 1000000000 0 0 88
129 0 0 1000000000 0 100 0
130 0 0 1000000000 0 0 79
131 0 0 1000000000 0 85 0
132 0 0 1000000000 0 0 78
133 0 0 1000000000 0 71 0
134 0 0 1000000000 0 0 96
135 0 0 1000000000 0 96 0
136 0 0 1000000000 0 0 76
137 0 0 1000000000 0 50 0
138 0 0 1000000000 0 0 100
139 0 0 1000000000 0 70 0
140 0 0 1000000000 0 0 55
141 0 0 1000000000 0 70 0
142 0 0 1000000000 0 0 82
143 0 0 1000000000 0 64 0
144 0 0 1000000000 0 0 61
145 0 0 1000000000 0 97 0
146 0 0 1000000000 0 0 82
147 0 0 1000000000 0 89 0
148 0 0 1000000000 0 0 81
149 0 0 1000000000 0 73 0
150 0 0 1000000000 0 0 63
151 0 0 1000000000 0 78 0
152 0 0 1000000000 0 0 74
153 0 0 1000000000 0 69 0
154 0 0 1000000000 0 0 53
155 0 0 1000000000 0 78 0
156 0 0 1000000000 0 0 71
157 0 0 1000000000 0 52 0
158 0 0 1000000000 0 0 96
159 0 0 1000000000 0 92 0
160 0 0 1000000000 0 0 75
161 0 0 1000000000 0 63 0
162 0 0 1000000000 0 0 56
163 0 0 1000000000 0 93 0
164 0 0 1000000000 0 0 86
165 0 0 1000000000 0 58 0
166 0 0 1000000000 0 0 58
167 0 0 1000000000 0 93 0
168 0 0 1000000000 0 0 78
169 0 0 1000000000 0 62 0
170 0 0 1000000000 0 0 64
171 0 0 1000000000 0 83 0
172 0 0 1000000000 0 0 100
173 0 0 1000000000 0 88 0
174 0 0 1000000000 0 0 79
175 0 0 1000000000 0 75 0
176 0 0 1000000000 0 0 76
177 0 0 1000000000 0 62 0
178 0 0 1000000000 0 0 62
179 0 0 1000000000 0 68 0
180 0 0 1000000000 0 0 80
181 0 0 1000000000 0 68 0
182 0 0 1000000000 0 0 56
183 0 0 1000000000 0 65 0
184 0 0 1000000000 0 0 64
185 0 0 1000000000 0 99 0
186 0 0 1000000000 0 0 71
187 0 0 1000000000 0 62 0
188 0 0 1000000000 0 0 58
189 0 0 1000000000 0 74 0
190 0 0 1000000000 0 0 89
191 0 0 1000000000 0 95 0
192 0 0 1000000000 0 0 70
193 0 0 1000000000 0 69 0
194 0 0 1000000000 0 0 72
195 0 0 1000000000 0 99 0
196 0 0 1000000000 0 0 60
197 0 0 1000000000 0 57 0
198 0 0 1000000000 0 0 95
199 0 0 1000000000 0 81 0
200 0 0 1000000000 0 0 72
201 0 0 1000000000 0 60 0
202 0 0 1000000000 0 0 79
203 0 0 1000000000 0 55 0
204 0 0 1000000000 0 0 76
205 0 0 1000000000 0 70 0
206 0 0 1000000000 0 0 94
207 0 0 1000000000 0 95 0
208 0 0 1000000000 0 0 79
209 0 0 1000000000 0 73 0
210 0 0 1000000000 0 0 69
211 0 0 1000000000 0 81 0
212 0 0 1000000000 0 0 89
213 0 0 1000000000 0 92 0
214 0 0 1000000000 0 0 74
215 0 0 1000000000 0 90 0
216 0 0 1000000000 0 0 53
217 0 0 1000000000 0 94 0
218 0 0 1000000000 0 0 52
219 0 0 1000000000 0 66 0
220 0 0 1000000000 0 0 97
221 0 0 1000000000 0 50 0
222 0 0 1000000000 0 0 75
223 0 0 1000000000 0 79 0
224 0 0 1000000000 0 0 86
225 0 0 1000000000 0 74 0
226 0 0 1000000000 0 0 51
227 0 0 1000000000 0 74 0
228 0 0 1000000000 0 0 90
229 0 0 1000000000 0 51 0
230 0 0 1000000000 0 0 57
231 0 0 1000000000 0 53 0
232 0 0 1000000000 0 0 72
233 0 0 1000000000 0 54 0
234 0 0 1000000000 0 0 71
235 0 0 1000000000 0 59 0
236 0 0 1000000000 0 0 75
237 0 0 1000000000 0 50 0
238 0 0 1000000000 0 0 78
239 0 0 1000000000 0 66 0
240 0 0 1000000000 0 0 85
241 0 0 1000000000 0 87 0
242 0 0 1000000000 0 0 79
243 0 0 1000000000 0 99 0
244 0 0 1000000000 0 0 100
245 0 0 1000000000 0 78 0
246 0 0 1000000000 0 0 69
247 0 0 1000000000 0 98 0
248 0 0 1000000000 0 0 54
249 0 0 1000000000 0 62 0
250 0 0 1000000000 0 0 75
251 0 0 1000000000 0 61 0
252 0 0 1000000000 0 0 77
253 0 0 1000000000 0 67 0
254 0 0 1000000000 0 0 58
255 0 0 1000000000 0 88 0
256 0 0 1000000000 0 0 86
257 0 0 1000000000 0 86 0
258 0 0 1000000000 0 0 73
259 0 0 1000000000 0 88 0
260 0 0 1000000000 0 0 64
261 0 0 1000000000 0 75 0
262 0 0 1000000000 0 0 97
263 0 0 1000000000 0 58 0
264 0 0 1000000000 0 0 91
265 0 0 1000000000 0 50 0
266 0 0 1000000000 0 0 68
267 0 0 1000000000 0 63 0
268 0 0 1000000000 0 0 84
269 0 0 1000000000 0 61 0
270 0 0 1000000000 0 0 84
271 0 0 1000000000 0 87 0
272 0 0 1000000000 0 0 58
273 0 0 1000000000 0 61 0
274 0 0 1000000000 0 0 68
275 0 0 1000000000 0 90 0
276 0 0 1000000000 0 0 99
277 0 0 1000000000 0 59 0
278 0 0 1000000000 0 0 92
279 0 0 1000000000 0 84 0
280 0 0 1000000000 0 0 83
281 0 0 1000000000 0 63 0
282 0 0 1000000000 0 0 65
283 0 0 1000000000 0 67 0
284 0 0 1000000000 0 0 88
285 0 0 1000000000 0 54 0
286 0 0 1000000000 0 0 88
287 0 0 1000000000 0 68 0
288 0 0 1000000000 0 0 86
289 0 0 1000000000 0 63 0
290 0 0 1000000000 0 0 61
291 0 0 1000000000 0 62 0
292 0 0 1000000000 0 0 73
293 0 0 1000000000 0 59 0
294 0 0 1000000000 0 0 65
295 0 0 1000000000 0 89 0
296 0 0 1000000000 0 0 95
297 0 0 1000000000 0 57 0
298 0 0 1000000000 0 0 95
299 0 0 1000000000 0 88 0
300 0 0 1000000000 0 0 93
301 0 0 1000000000 0 85 0
302 0 0 1000000000 0 0 63
303 0 0 1000000000 0 50 0
304 0 0 1000000000 0 0 63
305 0 0 1000000000 0 55 0
306 0 0 1000000000 0 0 62
307 0 0 1000000000 0 76 0
308 0 0 1000000000 0 0 76
309 0 0 1000000000 0 67 0
310 0 0 1000000000 0 0 94
311 0 0 1000000000 0 95 0
312 0 0 1000000000 0 0 52
313 0 0 1000000000 0 53 0
314 0 0 1000000000 0 0 99
315 0 0 1000000000 0 53 0
316 0 0 1000000000 0 0 67
317 0 0 1000000000 0 98 0
318 0 0 1000000000 0 0 66
319 0 0 1000000000 0 65 0
320 0 0 1000000000 0 0 100
321 0 0 1000000000 0 63 0
322 0 0 1000000000 0 0 95
323 0 0 1000000000 0 66 0
324 0 0 1000000000 0 0 54
325 0 0 1000000000 0 88 0
326 0 0 1000000000 0 0 63
327 0 0 1000000000 0 90 0
328 0 0 1000000000 0 0 96
329 0 0 1000000000 0 83 0
330 0 0 1000000000 0 0 79
331 0 0 1000000000 0 54 0
332 0 0 1000000000 0 0 91
333 0 0 1000000000 0 54 0
334 0 0 1000000000 0 0 66
335 0 0 1000000000 0 54 0
336 0 0 1000000000 0 0 63
337 0 0 1000000000 0 76 0
338 0 0 1000000000 0 0 90
339 0 0 1000000000 0 78 0
340 0 0 1000000000 0 0 70
341 0 0 1000000000 0 87 0
342 0 0 1000000000 0 0 76
343 0 0 1000000000 0 74 0
344 0 0 1000000000 0 0 77
345 0 0 1000000000 0 92 0
346 0 0 1000000000 0 0 51
347 0 0 1000000000 0 92 0
348 0 0 1000000000 0 0 55
349 0 0 1000000000 0 77 0
350 0 0 1000000000 0 0 95
351 0 0 1000000000 0 74 0
352 0 0 1000000000 0 0 90
353 0 0 1000000000 0 94 0
354 0 0 1000000000 0 0 98
355 0 0 1000000000 0 70 0
356 0 0 1000000000 0 0 98
357 0 0 1000000000 0 94 0
358 0 0 1000000000 0 0 95
359 0 0 1000000000 0 58 0
360 0 0 1000000000 0 0 59
361 0 0 1000000000 0 85 0
362 0 0 1000000000 0 0 97
363 0 0 1000000000 0 82 0
364 0 0 1000000000 0 0 66
365 0 0 1000000000 0 52 0
366 0 0 1000000000 0 0 96
367 0 0 1000000000 0 92 0
368 0 0 1000000000 0 0 73
369 0 0 1000000000 0 81 0
370 0 0 1000000000 0 0 77
371 0 0 1000000000 0 64 0
372 0 0 1000000000 0 0 71
373 0 0 1000000000 0 99 0
374 0 0 1000000000 0 0 93
375 0 0 1000000000 0 68 0
376 0 0 1000000000 0 0 70
377 0 0 1000000000 0 84 0
378 0 0 1000000000 0 0 52
379 0 0 1000000000 0 51 0
380 0 0 1000000000 0 0 91
381 0 0 1000000000 0 77 0
382 0 0 1000000000 0 0 75
383 0 0 1000000000 0 90 0
384 0 0 1000000000 0 0 71
385 0 0 1000000000 0 62 0
386 0 0 1000000000 0 0 99
387 0 0 1000000000 0 95 0
388 0 0 1000000000 0 0 92
389 0 0 1000000000 0 58 0
390 0 0 1000000000 0 0 58
391 0 0 1000000000 0 90 0
392 0 0 1000000000 0 0 99
393 0 0 1000000000 0 71 0
394 0 0 1000000000 0 0 74
395 0 0 1000000000 0 91 0
396 0 0 1000000000 0 0 58
397 0 0 1000000000 0 62 0
398 0 0 1000000000 0 0 52
399 0 0 1000000000 0 59 0
400 0 0 1000000000 0 0 55
401 0 0 1000000000 0 78 0
402 0 0 1000000000 0 0 99
403 0 0 1000000000 0 56 0
404 0 0 1000000000 0 0 68
405 0 0 1000000000 0 88 0
406 0 0 1000000000 0 0 93
407 0 0 1000000000 0 72 0
408 0 0 1000000000 0 0 97
409 0 0 1000000000 0 90 0
410 0 0 1000000000 0 0 77
411 0 0 1000000000 0 53 0
412 0 0 1000000000 0 0 62
413 0 0 1000000000 0 81 0
414 0 0 1000000000 0 0 59
415 0 0 1000000000 0 57 0
416 0 0 1000000000 0 0 58
417 0 0 1000000000 0 78 0
418 0 0 1000000000 0 0 74
419 0 0 1000000000 0 60 0
420 0 0 1000000000 0 0 75
421 0 0 1000000000 0 66 0
422 0 0 1000000000 0 0 57
423 0 0 1000000000 0 78 0
424 0 0 1000000000 0 0 79
425 0 0 1000000000 0 99 0
426 0 0 1000000000 0 0 89
427 0 0 1000000000 0 52 0
428 0 0 1000000000 0 0 57
429 0 0 1000000000 0 67 0
430 0 0 1000000000 0 0 89
431 0 0 1000000000 0 51 0
432 0 0 1000000000 0 0 76
433 0 0 1000000000 0 75 0
434 0 0 1000000000 0 0 83
435 0 0 1000000000 0 75 0
436 0 0 1000000000 0 0 100
437 0 0 1000000000 0 85 0
438 0 0 1000000000 0 0 78
439 0 0 1000000000 0 81 0
440 0 0 1000000000 0 0 71
441 0 0 1000000000 0 67 0
442 0 0 1000000000 0 0 51
443 0 0 1000000000 0 67 0
444 0 0 1000000000 0 0 59
445 0 0 1000000000 0 70 0
446 0 0 1000000000 0 0 98
447 0 0 1000000000 0 73 0
448 0 0 1000000000 0 0 65
449 0 0 1000000000 0 97 0
450 0 0 1000000000 0 0 99
451 0 0 1000000000 0 87 0
452 0 0 1000000000 0 0 89
453 0 0 1000000000 0 99 0
454 0 0 1000000000 0 0 93
455 0 0 1000000000 0 68 0
456 0 0 1000000000 0 0 63
457 0 0 1000000000 0 76 0
458 0 0 1000000000 0 0 67
459 0 0 1000000000 0 87 0
460 0 0 1000000000 0 0 50
461 0 0 1000000000 0 99 0
462 0 0 1000000000 0 0 55
463 0 0 1000000000 0 64 0
464 0 0 1000000000 0 0 98
465 0 0 1000000000 0 81 0
466 0 0 1000000000 0 0 56
467 0 0 1000000000 0 90 0
468 0 0 1000000000 0 0 53
469 0 0 1000000000 0 74 0
470 0 0 1000000000 0 0 51
471 0 0 1000000000 0 90 0
472 0 0 1000000000 0 0 56
473 0 0 1000000000 0 72 0
474 0 0 1000000000 0 0 52
475 0 0 1000000000 0 64 0
476 0 0 1000000000 0 0 72
477 0 0 1000000000 0 77 0
478 0 0 1000000000 0 0 94
479 0 0 1000000000 0 82 0
480 0 0 1000000000 0 0 55
481 0 0 1000000000 0 78 0
482 0 0 1000000000 0 0 51
483 0 0 1000000000 0 95 0
484 0 0 1000000000 0 0 69
485 0 0 1000000000 0 90 0
486 0 0 1000000000 0 0 67
487 0 0 1000000000 0 57 0
488 0 0 1000000000 0 0 65
489 0 0 1000000000 0 61 0
490 0 0 1000000000 0 0 85
491 0 0 1000000000 0 63 0
492 0 0 1000000000 0 0 78
493 0 0 1000000000 0 91 0
494 0 0 1000000000 0 0 54
495 0 0 1000000000 0 93 0
496 0 0 1000000000 0 0 85
497 0 0 1000000000 0 51 0
498 0 0 1000000000 0 0 95
499 0 0 1000000000 0 71 0
500 0 0 1000000000 0 0 71
501 0 0 1000000000 0 88 0
502 0 0 1000000000 0 0 63
503 0 0 1000000000 0 95 0
504 0 0 1000000000 0 0 67
505 0 0 1000000000 0 64 0
506 0 0 1000000000 0 0 56
507 0 0 1000000000 0 63 0
508 0 0 1000000000 0 0 88
509 0 0 1000000000 0 87 0
510 0 0 1000000000 0 0 97
511 0 0 1000000000 0 79 0
512 0 0 1000000000 0 0 94
513 0 0 1000000000 0 78 0
514 0 0 1000000000 0 0 57
515 0 0 1000000000 0 54 0
516 0 0 1000000000 0 0 57
517 0 0 1000000000 0 71 0
518 0 0 1000000000 0 0 80
519 0 0 1000000000 0 90 0
520 0 0 1000000000 0 0 50
521 0 0 1000000000 0 62 0
522 0 0 1000000000 0 0 69
523 0 0 1000000000 0 53 0
524 0 0 1000000000 0 0 79
525 0 0 1000000000 0 75 0
526 0 0 1000000000 0 0 88
527 0 0 1000000000 0 82 0
528 0 0 1000000000 0 0 51
529 0 0 1000000000 0 96 0
530 0 0 1000000000 0 0 74
531 0 0 1000000000 0 90 0
532 0 0 1000000000 0 0 91
533 0 0 1000000000 0 58 0
534 0 0 1000000000 0 0 66
535 0 0 1000000000 0 91 0
536 0 0 1000000000 0 0 67
537 0 0 1000000000 0 100 0
538 0 0 1000000000 0 0 90
539 0 0 1000000000 0 86 0
540 0 0 1000000000 0 0 96
541 0 0 1000000000 0 80 0
542 0 0 1000000000 0 0 59
543 0 0 1000000000 0 59 0
544 0 0 1000000000 0 0 93
545 0 0 1000000000 0 56 0
546 0 0 1000000000 0 0 93
547 0 0 1000000000 0 86 0
548 0 0 1000000000 0 0 93
549 0 0 1000000000 0 77 0
550 0 0 1000000000 0 0 85
551 0 0 1000000000 0 60 0
552 0 0 1000000000 0 0 81
553 0 0 1000000000 0 86 0
554 0 0 1000000000 0 0 97
555 0 0 1000000000 0 77 0
556 0 0 1000000000 0 0 93
557 0 0 1000000000 0 86 0
558 0 0 1000000000 0 0 56
559 0 0 1000000000 0 78 0
560 0 0 1000000000 0 0 62
561 0 0 1000000000 0 72 0
562 0 0 1000000000 0 0 73
563 0 0 1000000000 0 65 0
564 0 0 1000000000 0 0 50
565 0 0 1000000000 0 69 0
566 0 0 1000000000 0 0 61
567 0 0 1000000000 0 73 0
568 0 0 1000000000 0 0 70
569 0 0 1000000000 0 88 0
570 0 0 1000000000 0 0 80
571 0 0 1000000000 0 52 0
572 0 0 1000000000 0 0 86
573 0 0 1000000000 0 91 0
574 0 0 1000000000 0 0 84
575 0 0 1000000000 0 68 0
576 0 0 1000000000 0 0 68
577 0 0 1000000000 0 69 0
578 0 0 1000000000 0 0 86
579 0 0 1000000000 0 60 0
580 0 0 1000000000 0 0 62
581 0 0 1000000000 0 89 0
582 0 0 1000000000 0 0 83
583 0 0 1000000000 0 65 0
584 0 0 1000000000 0 0 73
585 0 0 1000000000 0 90 0
586 0 0 1000000000 0 0 94
587 0 0 1000000000 0 53 0
588 0 0 1000000000 0 0 57
589 0 0 1000000000 0 54 0
590 0 0 1000000000 0 0 61
591 0 0 1000000000 0 75 0
592 0 0 1000000000 0 0 81
593 0 0 1000000000 0 87 0
594 0 0 1000000000 0 0 66
595 0 0 1000000000 0 68 0
596 0 0 1000000000 0 0 90
597 0 0 1000000000 0 53 0
598 0 0 1000000000 0 0 100
599 0 0 1000000000 0 87 0
600 0 0 1000000000 0 0 92
601 0 0 1000000000 0 86 0
602 0 0 1000000000 0 0 53
603 0 0 1000000000 0 83 0
604 0 0 1000000000 0 0 98
605 0 0 1000000000 0 51 0
606 0 0 1000000000 0 0 71
607 0 0 1000000000 0 52 0
608 0 0 1000000000 0 0 83
609 0 0 1000000000 0 76 0
610 0 0 1000000000 0 0 62
611 0 0 1000000000 0 98 0
612 0 0 1000000000 0 0 56
613 0 0 1000000000 0 91 0
614 0 0 1000000000 0 0 74
615 0 0 1000000000 0 100 0
616 0 0 1000000000 0 0 90
617 0 0 1000000000 0 84 0
618 0 0 1000000000 0 0 87
619 0 0 1000000000 0 55 0
620 0 0 1000000000 0 0 62
621 0 0 1000000000 0 65 0
622 0 0 1000000000 0 0 55
623 0 0 1000000000 0 69 0
624 0 0 1000000000 0 0 71
625 0 0 1000000000 0 100 0
626 0 0 1000000000 0 0 82
627 0 0 1000000000 0 69 0
628 0 0 1000000000 0 0 99
629 0 0 1000000000 0 93 0
630 0 0 1000000000 0 0 83
631 0 0 1000000000 0 78 0
632 0 0 1000000000 0 0 94
633 0 0 1000000000 0 51 0
634 0 0 1000000000 0 0 86
635 0 0 1000000000 0 98 0
636 0 0 1000000000 0 0 68
637 0 0 1000000000 0 95 0
638 0 0 1000000000 0 0 72
639 0 0 1000000000 0 55 0
640 0 0 1000000000 0 0 52
641 0 0 1000000000 0 83 0
642 0 0 1000000000 0 0 98
643 0 0 1000000000 0 67 0
644 0 0 1000000000 0 0 64
645 0 0 1000000000 0 64 0
646 0 0 1000000000 0 0 62
647 0 0 1000000000 0 59 0
648 0 0 1000000000 0 0 95
649 0 0 1000000000 0 73 0
650 0 0 1000000000 0 0 52
651 0 0 1000000000 0 50 0
652 0 0 1000000000 0 0 97
653 0 0 1000000000 0 100 0
654 0 0 1000000000 0 0 90
655 0 0 1000000000 0 55 0
656 0 0 1000000000 0 0 98
657 0 0 1000000000 0 66 0
658 0 0 1000000000 0 0 95
659 0 0 1000000000 0 88 0
660 0 0 1000000000 0 0 65
661 0 0 1000000000 0 71 0
662 0 0 1000000000 0 0 63
663 0 0 1000000000 0 92 0
664 0 0 1000000000 0 0 93
665 0 0 1000000000 0 93 0
666 0 0 1000000000 0 0 53
667 0 0 1000000000 0 66 0
668 0 0 1000000000 0 0 89
669 0 0 1000000000 0 53 0
670 0 0 1000000000 0 0 90
671 0 0 1000000000 0 73 0
672 0 0 1000000000 0 0 89
673 0 0 1000000000 0 99 0
674 0 0 1000000000 0 0 70
675 0 0 1000000000 0 91 0
676 0 0 1000000000 0 0 75
677 0 0 1000000000 0 93 0
678 0 0 1000000000 0 0 98
679 0 0 1000000000 0 88 0
680 0 0 1000000000 0 0 51
681 0 0 1000000000 0 67 0
682 0 0 1000000000 0 0 68
683 0 0 1000000000 0 60 0
684 0 0 1000000000 0 0 100
685 0 0 1000000000 0 91 0
686 0 0 1000000000 0 0 65
687 0 0 1000000000 0 79 0
688 0 0 1000000000 0 0 73
689 0 0 1000000000 0 96 0
690 0 0 1000000000 0 0 83
691 0 0 1000000000 0 96 0
692 0 0 1000000000 0 0 79
693 0 0 1000000000 0 71 0
694 0 0 1000000000 0 0 92
695 0 0 1000000000 0 72 0
696 0 0 1000000000 0 0 50
697 0 0 1000000000 0 67 0
698 0 0 1000000000 0 0 85
699 0 0 1000000000 0 60 0
700 0 0 1000000000 0 0 97
701 0 0 1000000000 0 60 0
702 0 0 1000000000 0 0 74
703 0 0 1000000000 0 51 0
704 0 0 1000000000 0 0 58
705 0 0 1000000000 0 82 0
706 0 0 1000000000 0 0 55
707 0 0 1000000000 0 88 0
708 0 0 1000000000 0 0 77
709 0 0 1000000000 0 59 0
710 0 0 1000000000 0 0 83
711 0 0 1000000000 0 82 0
712 0 0 1000000000 0 0 76
713 0 0 1000000000 0 74 0
714 0 0 1000000000 0 0 58
715 0 0 1000000000 0 55 0
716 0 0 1000000000 0 0 59
717 0 0 1000000000 0 72 0
718 0 0 1000000000 0 0 85
719 0 0 1000000000 0 85 0
720 0 0 1000000000 0 0 63
721 0 0 1000000000 0 96 0
722 0 0 1000000000 0 0 72
723 0 0 1000000000 0 62 0
724 0 0 1000000000 0 0 79
725 0 0 1000000000 0 75 0
726 0 0 1000000000 0 0 70
727 0 0 1000000000 0 66 0
728 0 0 1000000000 0 0 82
729 0 0 1000000000 0 83 0
730 0 0 1000000000 0 0 55
731 0 0 1000000000 0 100 0
732 0 0 1000000000 0 0 82
733 0 0 1000000000 0 99 0
734 0 0 1000000000 0 0 78
735 0 0 1000000000 0 86 0
736 0 0 1000000000 0 0 73
737 0 0 1000000000 0 88 0
738 0 0 1000000000 0 0 80
739 0 0 1000000000 0 79 0
740 0 0 1000000000 0 0 59
741 0 0 1000000000 0 97 0
742 0 0 1000000000 0 0 68
743 0 0 1000000000 0 87 0
744 0 0 1000000000 0 0 82
745 0 0 1000000000 0 50 0
746 0 0 1000000000 0 0 52
747 0 0 1000000000 0 56 0
748 0 0 1000000000 0 0 67
749 0 0 1000000000 0 75 0
750 0 0 1000000000 0 0 99
751 0 0 1000000000 0 70 0
752 0 0 1000000000 0 0 82
753 0 0 1000000000 0 73 0
754 0 0 1000000000 0 0 89
755 0 0 1000000000 0 57 0
756 0 0 1000000000 0 0 53
757 0 0 1000000000 0 66 0
758 0 0 1000000000 0 0 50
759 0 0 1000000000 0 68 0
760 0 0 1000000000 0 0 51
761 0 0 1000000000 0 98 0
762 0 0 1000000000 0 0 91
763 0 0 1000000000 0 53 0
764 0 0 1000000000 0 0 83
765 0 0 1000000000 0 50 0
766 0 0 1000000000 0 0 51
767 0 0 1000000000 0 70 0
768 0 0 1000000000 0 0 99
769 0 0 1000000000 0 77 0
770 0 0 1000000000 0 0 70
771 0 0 1000000000 0 84 0
772 0 0 1000000000 0 0 61
773 0 0 1000000000 0 88 0
774 0 0 1000000000 0 0 55
775 0 0 1000000000 0 98 0
776 0 0 1000000000 0 0 82
777 0 0 1000000000 0 55 0
778 0 0 1000000000 0 0 74
779 0 0 1000000000 0 82 0
780 0 0 1000000000 0 0 59
781 0 0 1000000000 0 85 0
782 0 0 1000000000 0 0 58
783 0 0 1000000000 0 78 0
784 0 0 1000000000 0 0 93
785 0 0 1000000000 0 88 0
786 0 0 1000000000 0 0 60
787 0 0 1000000000 0 52 0
788 0 0 1000000000 0 0 93
789 0 0 1000000000 0 77 0
790 0 0 1000000000 0 0 83
791 0 0 1000000000 0 73 0
792 0 0 1000000000 0 0 73
793 0 0 1000000000 0 69 0
794 0 0 1000000000 0 0 69
795 0 0 1000000000 0 94 0
796 0 0 1000000000 0 0 90
797 0 0 1000000000 0 100 0
798 0 0 1000000000 0 0 99
799 0 0 1000000000 0 50 0
800 0 0 1000000000 0 0 98
801 0 0 1000000000 0 56 0
802 0 0 1000000000 0 0 53
803 0 0 1000000000 0 73 0
804 0 0 1000000000 0 0 72
805 0 0 1000000000 0 64 0
806 0 0 1000000000 0 0 97
807 0 0 1000000000 0 58 0
808 0 0 1000000000 0 0 91
809 0 0 1000000000 0 96 0
810 0 0 1000000000 0 0 52
811 0 0 1000000000 0 53 0
812 0 0 1000000000 0 0 77
813 0 0 1000000000 0 82 0
814 0 0 1000000000 0 0 66
815 0 0 1000000000 0 55 0
816 0 0 1000000000 0 0 59
817 0 0 1000000000 0 96 0
818 0 0 1000000000 0 0 62
819 0 0 1000000000 0 67 0
820 0 0 1000000000 0 0 85
821 0 0 1000000000 0 91 0
822 0 0 1000000000 0 0 70
823 0 0 1000000000 0 78 0
824 0 0 1000000000 0 0 61
825 0 0 1000000000 0 54 0
826 0 0 1000000000 0 0 66
827 0 0 1000000000 0 90 0
828 0 0 1000000000 0 0 91
829 0 0 1000000000 0 78 0
830 0 0 1000000000 0 0 68
831 0 0 1000000000 0 72 0
832 0 0 1000000000 0 0 85
833 0 0 1000000000 0 83 0
834 0 0 1000000000 0 0 56
835 0 0 1000000000 0 68 0
836 0 0 1000000000 0 0 81
837 0 0 1000000000 0 60 0
838 0 0 1000000000 0 0 93
839 0 0 1000000000 0 67 0
840 0 0 1000000000 0 0 73
841 0 0 1000000000 0 79 0
842 0 0 1000000000 0 0 62
843 0 0 1000000000 0 92 0
844 0 0 1000000000 0 0 59
845 0 0 1000000000 0 100 0
846 0 0 1000000000 0 0 74
847 0 0 1000000000 0 96 0
848 0 0 1000000000 0 0 96
849 0 0 1000000000 0 55 0
850 0 0 1000000000 0 0 72
851 0 0 1000000000 0 72 0
852 0 0 1000000000 0 0 70
853 0 0 1000000000 0 90 0
854 0 0 1000000000 0 0 64
855 0 0 1000000000 0 76 0
856 0 0 1000000000 0 0 79
857 0 0 1000000000 0 63 0
858 0 0 1000000000 0 0 58
859 0 0 1000000000 0 62 0
860 0 0 1000000000 0 0 75
861 0 0 1000000000 0 69 0
862 0 0 1000000000 0 0 63
863 0 0 1000000000 0 81 0
864 0 0 1000000000 0 0 75
865 0 0 1000000000 0 65 0
866 0 0 1000000000 0 0 54
867 0 0 1000000000 0 88 0
868 0 0 1000000000 0 0 76
869 0 0 1000000000 0 57 0
870 0 0 1000000000 0 0 97
871 0 0 1000000000 0 67 0
872 0 0 1000000000 0 0 92
873 0 0 1000000000 0 63 0
874 0 0 1000000000 0 0 81
875 0 0 1000000000 0 67 0
876 0 0 1000000000 0 0 94
877 0 0 1000000000 0 72 0
878 0 0 1000000000 0 0 82
879 0 0 1000000000 0 97 0
880 0 0 1000000000 0 0 67
881 0 0 1000000000 0 75 0
882 0 0 1000000000 0 0 65
883 0 0 1000000000 0 87 0
884 0 0 1000000000 0 0 86
885 0 0 1000000000 0 56 0
886 0 0 1000000000 0 0 65
887 0 0 1000000000 0 64 0
888 0 0 1000000000 0 0 90
889 0 0 1000000000 0 51 0
890 0 0 1000000000 0 0 72
891 0 0 1000000000 0 82 0
892 0 0 1000000000 0 0 82
893 0 0 1000000000 0 55 0
894 0 0 1000000000 0 0 86
895 0 0 1000000000 0 72 0
